 &control
    calculation = 'scf'
    tprnfor = .true.
    tstress = .true.
    pseudo_dir = './pseudo/'
    disk_io = 'none'
 /
 &system
    ibrav = 0
    nat = 32
    ntyp = 1
    ecutwfc = 70.0
 /
 &electrons
    diagonalization = 'david'
    conv_thr = 1.0d-9
 /
K_POINTS automatic
 2 2 2  1 1 1
!    ibrav = 0, nat = 32, ntyp = 1
CELL_PARAMETERS bohr
   22.3290342709973331    0.0000000000000000    0.0000000000000000
    0.0000000000000000   22.3290342709973331    0.0000000000000000
    0.0000000000000000    0.0000000000000000   12.2666734487669800
ATOMIC_SPECIES
 Sn  118.71000   sn_pbesol_v1.4.uspp.F.UPF
ATOMIC_POSITIONS crystal
 Sn   0.0007850341693519  0.0000000000000000  0.0007850341693519
 Sn   0.5000000000000000  0.0000000000000000  0.0000000000000000
 Sn   0.0000000000000000  0.5000000000000000  0.0000000000000000
 Sn   0.5000000000000000  0.5000000000000000  0.0000000000000000
 Sn   0.0000000000000000  0.0000000000000000  0.5000000000000000
 Sn   0.5000000000000000  0.0000000000000000  0.5000000000000000
 Sn   0.0000000000000000  0.5000000000000000  0.5000000000000000
 Sn   0.5000000000000000  0.5000000000000000  0.5000000000000000
 Sn   0.2500000000000000  0.0000000000000000  0.1250000000000000
 Sn   0.7500000000000000  0.0000000000000000  0.1250000000000000
 Sn   0.2500000000000000  0.5000000000000000  0.1250000000000000
 Sn   0.7500000000000000  0.5000000000000000  0.1250000000000000
 Sn   0.2500000000000000  0.0000000000000000  0.6250000000000000
 Sn   0.7500000000000000  0.0000000000000000  0.6250000000000000
 Sn   0.2500000000000000  0.5000000000000000  0.6250000000000000
 Sn   0.7500000000000000  0.5000000000000000  0.6250000000000000
 Sn   0.2500000000000000  0.2500000000000000  0.2500000000000000
 Sn   0.7500000000000000  0.2500000000000000  0.2500000000000000
 Sn   0.2500000000000000  0.7500000000000000  0.2500000000000000
 Sn   0.7500000000000000  0.7500000000000000  0.2500000000000000
 Sn   0.2500000000000000  0.2500000000000000  0.7500000000000000
 Sn   0.7500000000000000  0.2500000000000000  0.7500000000000000
 Sn   0.2500000000000000  0.7500000000000000  0.7500000000000000
 Sn   0.7500000000000000  0.7500000000000000  0.7500000000000000
 Sn   0.0000000000000000  0.2500000000000000  0.3750000000000000
 Sn   0.5000000000000000  0.2500000000000000  0.3750000000000000
 Sn   0.0000000000000000  0.7500000000000000  0.3750000000000000
 Sn   0.5000000000000000  0.7500000000000000  0.3750000000000000
 Sn   0.0000000000000000  0.2500000000000000  0.8750000000000000
 Sn   0.5000000000000000  0.2500000000000000  0.8750000000000000
 Sn   0.0000000000000000  0.7500000000000000  0.8750000000000000
 Sn   0.5000000000000000  0.7500000000000000  0.8750000000000000